LAMMPS (5 Jun 2019)
# Big colloid particles and small LJ particles

units		lj
atom_style	sphere
dimension	2

lattice		sq 0.01
Lattice spacing in x,y,z = 10 10 10
region		box block 0 30 0 30 -0.5 0.5
create_box	2 box
Created orthogonal box = (0 0 -5) to (300 300 5)
  4 by 2 by 1 MPI processor grid
create_atoms	1 box
Created 900 atoms
  create_atoms CPU = 0.167984 secs

set		group all type/fraction 2 0.96 23984
  861 settings made for type/fraction

set		type 1 mass 9
  39 settings made for mass
set		type 2 mass 1
  861 settings made for mass

velocity	all create 1.44 87287 loop geom

# multi neighbor and comm for efficiency

neighbor	1 multi
neigh_modify	delay 0
comm_modify     mode multi

# colloid potential

pair_style	colloid 12.5
pair_coeff	1 1  1.0 1.0 5.0 5.0 12.5
pair_coeff	1 2  5.0 1.0 5.0 0.0 7.0
pair_coeff	2 2 10.0 1.0 0.0 0.0 2.5

fix		1 all npt temp 2.0 2.0 1.0 iso 0.0 1.0 10.0 drag 1.0 	        mtk no pchain 0 tchain 1
fix		2 all enforce2d

dump		1 all atom 1000 colloid.atom

#dump		2 all image 1000 image.*.jpg type type #		zoom 1.5 center d 0.5 0.5 0.5
#dump_modify	2 pad 5 adiam 1 5.0 adiam 2 1.5

#dump		3 all movie 1000 movie.mpg type type #		zoom 1.5 center d 0.5 0.5 0.5
#dump_modify	3 pad 5 adiam 1 5.0 adiam 2 1.5

thermo_style	custom step temp epair etotal press vol
thermo		1000

timestep	0.005

run		50000
Neighbor list info ...
  update every 1 steps, delay 0 steps, check yes
  max neighbors/atom: 2000, page size: 100000
  master list distance cutoff = 13.5
  ghost atom cutoff = 13.5
  binsize = 1.75, bins = 172 172 6
  1 neighbor lists, perpetual/occasional/extra = 1 0 0
  (1) pair colloid, perpetual
      attributes: half, newton on
      pair build: half/multi/newton
      stencil: half/multi/2d/newton
      bin: standard
Per MPI rank memory allocation (min/avg/max) = 5.331 | 5.331 | 5.331 Mbytes
Step Temp E_pair TotEng Press Volume 
       0         1.44 -2.2136534e-06    1.4383978  0.014383923        90000 
    1000    1.9572809 -0.00036743274    1.9547388  0.017982269    98935.161 
    2000     2.068567 -0.0010518227    2.0652168  0.019466739    96307.439 
    3000    2.1787472 0.0045846363     2.180911  0.029249545     68560.31 
    4000    2.1979309 0.0017234058    2.1972121  0.048831814    42699.657 
    5000    2.1541368 0.0068842503    2.1586276   0.07471981    28571.492 
    6000    2.1113172 0.0024197498    2.1113911  0.091799827     21611.61 
    7000    2.0789335 0.0060255363    2.0826491   0.11638119    17868.763 
    8000    2.0613832 0.0062618398    2.0653546   0.13136835     15515.95 
    9000    2.0441734  0.016874166    2.0587762   0.15172867    13882.037 
   10000    2.0455786   0.01112012    2.0544259   0.16560244    12593.256 
   11000    2.0566107 0.0052842559    2.0596098   0.18406156    11469.037 
   12000    2.0304708  0.027265949    2.0554807    0.2168769    10560.544 
   13000    2.0363619   0.01983202    2.0539313    0.2418278     9767.608 
   14000    2.0351196  0.020010922    2.0528693   0.25127891    9126.3983 
   15000     2.037357  0.014919812     2.050013   0.25942355    8626.0291 
   16000    2.0273239  0.028347507    2.0534188   0.31354446    8161.3605 
   17000    2.0422016  0.012809505     2.052742   0.28095951    7733.1579 
   18000    2.0292093  0.020921097    2.0478757   0.32861733    7360.6256 
   19000    1.9957787   0.05985229    2.0534134    0.3700501    7021.8104 
   20000    2.0425639  0.011850936    2.0521454     0.360271    6751.7391 
   21000    2.0105516  0.041333029    2.0496507   0.41400962    6541.3294 
   22000    2.0360965   0.02127647    2.0551106   0.40373387    6340.6279 
   23000    2.0385237  0.020597867    2.0568566   0.41200825    6082.2001 
   24000    2.0121033  0.046815951    2.0566836   0.45393041    5855.2321 
   25000      2.02397  0.033965168    2.0556863   0.53095159    5677.6873 
   26000    2.0200274  0.034366544    2.0521494   0.47266878    5545.5848 
   27000    2.0206002  0.035428572    2.0537836   0.49411511    5426.0618 
   28000    2.0143993  0.049220249    2.0613813   0.54734331    5295.8749 
   29000    2.0239032  0.039021013    2.0606754   0.56007244     5197.525 
   30000    2.0140933  0.051079776    2.0629352   0.60196471    5080.4124 
   31000    2.0413653  0.026606607    2.0657037   0.54802094    4923.3644 
   32000     2.016715   0.04906793    2.0635422   0.65637954    4811.9094 
   33000    2.0009876  0.065191624    2.0639559    0.6515815    4731.5146 
   34000    2.0004662  0.064418005    2.0626614   0.69094927    4663.2371 
   35000    2.0081192  0.066515903    2.0724038   0.65689709    4591.5708 
   36000    2.0026309   0.06557374    2.0659795   0.68761737    4528.0831 
   37000    2.0216755  0.050863278    2.0702925   0.67174291     4453.356 
   38000    2.0027331  0.070260618    2.0707684   0.73128031    4391.0063 
   39000     2.026675  0.052639722    2.0770629   0.72418648    4304.4165 
   40000    1.9816824   0.10030928    2.0797898   0.90645158    4222.8873 
   41000    2.0316474  0.052076452    2.0814665   0.75028251    4147.2987 
   42000    2.0076168  0.068964852     2.074351   0.78892891    4105.8251 
   43000    2.0117831  0.071741012    2.0812888   0.85381539    4075.9725 
   44000    1.9853683  0.098436975    2.0815993   0.92009219    4056.2079 
   45000    2.0208552  0.073490264    2.0921001   0.89854159    3991.9686 
   46000    2.0210317  0.074001006    2.0927871   0.87829173    3915.4045 
   47000    2.0245028  0.069476568    2.0917299    0.9135439     3858.303 
   48000    2.0210437  0.065799273    2.0845974   0.97901035     3821.487 
   49000    1.9990433  0.097557577    2.0943797    1.0332361    3786.1146 
   50000    2.0036976  0.095176138    2.0966474    1.1723124    3762.6288 
Loop time of 76.5105 on 8 procs for 50000 steps with 900 atoms

Performance: 282314.198 tau/day, 653.505 timesteps/s
74.1% CPU use with 8 MPI tasks x no OpenMP threads

MPI task timing breakdown:
Section |  min time  |  avg time  |  max time  |%varavg| %total
---------------------------------------------------------------
Pair    | 1.003      | 1.1072     | 1.1638     |   4.4 |  1.45
Neigh   | 0.28054    | 0.30264    | 0.32052    |   2.2 |  0.40
Comm    | 27.685     | 28.318     | 28.783     |   6.5 | 37.01
Output  | 0.31044    | 0.32256    | 0.33548    |   1.8 |  0.42
Modify  | 37.558     | 37.81      | 38.157     |   3.2 | 49.42
Other   |            | 8.651      |            |       | 11.31

Nlocal:    112.5 ave 137 max 88 min
Histogram: 2 0 0 0 1 2 2 0 0 1
Nghost:    247.25 ave 264 max 230 min
Histogram: 1 0 2 1 0 0 1 2 0 1
Neighs:    747.875 ave 942 max 575 min
Histogram: 2 0 0 0 1 3 1 0 0 1

Total # of neighbors = 5983
Ave neighs/atom = 6.64778
Neighbor list builds = 3100
Dangerous builds = 0

Please see the log.cite file for references relevant to this simulation

Total wall time: 0:01:17
